language Essence 1.3

letting blksize_delta be
        function(1 --> 10, 2 --> 10, 3 --> 10, 4 --> 10, 5 --> 10, 6 --> 10, 7 --> 10, 8 --> 10, 9 --> 10, 10 --> 10,
                 11 --> 10, 12 --> 10, 13 --> 10, 14 --> 10, 15 --> 10, 16 --> 10, 17 --> 10, 18 --> 10, 19 --> 10,
                 20 --> 10, 21 --> 10, 22 --> 10, 23 --> 10, 24 --> 10, 25 --> 10, 26 --> 10, 27 --> 10, 28 --> 10,
                 29 --> 10, 30 --> 10, 31 --> 10)
letting maxcars be
        function(1 --> 8, 2 --> 8, 3 --> 8, 4 --> 9, 5 --> 8, 6 --> 10, 7 --> 10, 8 --> 9, 9 --> 10, 10 --> 9, 11 --> 9,
                 12 --> 8, 13 --> 8, 14 --> 8, 15 --> 8, 16 --> 8, 17 --> 8, 18 --> 8, 19 --> 8, 20 --> 9, 21 --> 9,
                 22 --> 8, 23 --> 8, 24 --> 8, 25 --> 8, 26 --> 8, 27 --> 9, 28 --> 8, 29 --> 8, 30 --> 8, 31 --> 8)
letting n_cars be 158
letting n_classes be 22
letting n_options be 31
letting quantity be
        function(1 --> 8, 2 --> 7, 3 --> 7, 4 --> 7, 5 --> 10, 6 --> 7, 7 --> 7, 8 --> 7, 9 --> 7, 10 --> 7, 11 --> 7,
                 12 --> 7, 13 --> 7, 14 --> 7, 15 --> 7, 16 --> 7, 17 --> 7, 18 --> 7, 19 --> 7, 20 --> 7, 21 --> 7,
                 22 --> 7)
letting usage be
        relation((1, 1), (1, 2), (1, 13), (1, 14), (1, 15), (1, 17), (1, 22), (1, 25), (2, 4), (2, 14), (2, 15),
                 (2, 18), (2, 31), (3, 1), (3, 4), (3, 8), (3, 22), (3, 25), (3, 27), (3, 28), (3, 29), (3, 30),
                 (3, 31), (4, 9), (4, 16), (4, 17), (4, 20), (4, 21), (4, 27), (4, 28), (5, 3), (5, 5), (5, 11),
                 (5, 13), (5, 26), (5, 27), (5, 31), (6, 2), (6, 5), (6, 11), (6, 12), (6, 13), (6, 18), (6, 21),
                 (6, 22), (6, 23), (6, 26), (6, 28), (7, 1), (7, 4), (7, 5), (7, 7), (7, 9), (7, 10), (7, 19), (7, 22),
                 (7, 27), (7, 29), (7, 31), (8, 4), (8, 5), (8, 6), (8, 10), (8, 24), (9, 1), (9, 2), (9, 5), (9, 10),
                 (9, 11), (9, 17), (9, 25), (10, 2), (10, 8), (10, 9), (10, 18), (10, 20), (10, 22), (10, 27), (11, 5),
                 (11, 10), (11, 14), (11, 15), (11, 17), (11, 28), (11, 29), (12, 1), (12, 2), (12, 3), (12, 4),
                 (12, 6), (12, 11), (12, 13), (12, 17), (12, 18), (12, 19), (12, 21), (12, 23), (12, 27), (13, 3),
                 (13, 6), (13, 9), (13, 10), (13, 12), (13, 20), (13, 21), (13, 26), (14, 7), (14, 9), (14, 13),
                 (14, 15), (14, 18), (14, 19), (14, 21), (14, 26), (14, 30), (14, 31), (15, 1), (15, 3), (15, 6),
                 (15, 12), (15, 21), (15, 22), (15, 25), (16, 2), (16, 9), (16, 14), (16, 23), (16, 29), (16, 30),
                 (16, 31), (17, 2), (17, 3), (17, 11), (17, 12), (17, 20), (17, 27), (17, 28), (18, 1), (18, 5),
                 (18, 6), (18, 13), (18, 14), (18, 16), (18, 17), (18, 18), (18, 20), (18, 29), (19, 10), (19, 13),
                 (19, 27), (19, 28), (20, 11), (20, 12), (20, 13), (20, 14), (20, 18), (20, 20), (20, 22), (20, 28),
                 (20, 29), (20, 30), (21, 3), (21, 7), (21, 8), (21, 10), (21, 26), (21, 30), (22, 4), (22, 16),
                 (22, 17), (22, 18), (22, 19), (22, 24), (22, 25), (22, 26), (22, 31))
$ Visualisation for usage
$  1  1
$  1  2
$  1 13
$  1 14
$  1 15
$  1 17
$  1 22
$  1 25
$  2  4
$  2 14
$  2 15
$  2 18
$  2 31
$  3  1
$  3  4
$  3  8
$  3 22
$  3 25
$  3 27
$  3 28
$  3 29
$  3 30
$  3 31
$  4  9
$  4 16
$  4 17
$  4 20
$  4 21
$  4 27
$  4 28
$  5  3
$  5  5
$  5 11
$  5 13
$  5 26
$  5 27
$  5 31
$  6  2
$  6  5
$  6 11
$  6 12
$  6 13
$  6 18
$  6 21
$  6 22
$  6 23
$  6 26
$  6 28
$  7  1
$  7  4
$  7  5
$  7  7
$  7  9
$  7 10
$  7 19
$  7 22
$  7 27
$  7 29
$  7 31
$  8  4
$  8  5
$  8  6
$  8 10
$  8 24
$  9  1
$  9  2
$  9  5
$  9 10
$  9 11
$  9 17
$  9 25
$ 10  2
$ 10  8
$ 10  9
$ 10 18
$ 10 20
$ 10 22
$ 10 27
$ 11  5
$ 11 10
$ 11 14
$ 11 15
$ 11 17
$ 11 28
$ 11 29
$ 12  1
$ 12  2
$ 12  3
$ 12  4
$ 12  6
$ 12 11
$ 12 13
$ 12 17
$ 12 18
$ 12 19
$ 12 21
$ 12 23
$ 12 27
$ 13  3
$ 13  6
$ 13  9
$ 13 10
$ 13 12
$ 13 20
$ 13 21
$ 13 26
$ 14  7
$ 14  9
$ 14 13
$ 14 15
$ 14 18
$ 14 19
$ 14 21
$ 14 26
$ 14 30
$ 14 31
$ 15  1
$ 15  3
$ 15  6
$ 15 12
$ 15 21
$ 15 22
$ 15 25
$ 16  2
$ 16  9
$ 16 14
$ 16 23
$ 16 29
$ 16 30
$ 16 31
$ 17  2
$ 17  3
$ 17 11
$ 17 12
$ 17 20
$ 17 27
$ 17 28
$ 18  1
$ 18  5
$ 18  6
$ 18 13
$ 18 14
$ 18 16
$ 18 17
$ 18 18
$ 18 20
$ 18 29
$ 19 10
$ 19 13
$ 19 27
$ 19 28
$ 20 11
$ 20 12
$ 20 13
$ 20 14
$ 20 18
$ 20 20
$ 20 22
$ 20 28
$ 20 29
$ 20 30
$ 21  3
$ 21  7
$ 21  8
$ 21 10
$ 21 26
$ 21 30
$ 22  4
$ 22 16
$ 22 17
$ 22 18
$ 22 19
$ 22 24
$ 22 25
$ 22 26
$ 22 31

